
  22   10
  10   10   10   10   10   10   10   10   10   10

   0   0   0   0   0   0   0   0   0   0   0   2 2 21 
   2  10  10  10  10  10  10  10  10  10  10   2 20 3 
  10  10  10  10  10  10  10  10  10  10  10   1 4 
   7  10  10  10  10  10  10  10  10  10  10   3 12 10 5 
   2  10  10  10  10  10  10  10  10  10  10   2 19 6 
   3  10  10  10  10  10  10  10  10  10  10   2 17 7 
   5  10  10  10  10  10  10  10  10  10  10   1 8 
   2  10  10  10  10  10  10  10  10  10  10   3 16 15 9 
   3  10  10  10  10  10  10  10  10  10  10   2 14 11 
   2  10  10  10  10  10  10  10  10  10  10   1 11 
  10  10  10  10  10  10  10  10  10  10  10   1 13 
   1  10  10  10  10  10  10  10  10  10  10   1 18 
   2  10  10  10  10  10  10  10  10  10  10   1 22
   9  10  10  10  10  10  10  10  10  10  10   1 22
   9  10  10  10  10  10  10  10  10  10  10   1 22
  10  10  10  10  10  10  10  10  10  10  10   1 22
   7  10  10  10  10  10  10  10  10  10  10   1 22
   4  10  10  10  10  10  10  10  10  10  10   1 22
   3  10  10  10  10  10  10  10  10  10  10   1 22
   8  10  10  10  10  10  10  10  10  10  10   1 22
   3  10  10  10  10  10  10  10  10  10  10   1 22
   0   0   0   0   0   0   0   0   0   0   0   0 
